output ["V0 = ",show(V0),"\n","VE00 = ",show(VE00),"\n","VE01 = ",show(VE01),"\n","VE02 = ",show(VE02),"\n","VE03 = ",show(VE03),"\n","VE04 = ",show(VE04),"\n","VE05 = ",show(VE05),"\n","VE06 = ",show(VE06),"\n","V1 = ",show(V1),"\n","VE10 = ",show(VE10),"\n","VE11 = ",show(VE11),"\n","VE12 = ",show(VE12),"\n","VE13 = ",show(VE13),"\n","VE14 = ",show(VE14),"\n","VE15 = ",show(VE15),"\n","VE16 = ",show(VE16),"\n","V2 = ",show(V2),"\n","VE20 = ",show(VE20),"\n","VE21 = ",show(VE21),"\n","VE22 = ",show(VE22),"\n","VE23 = ",show(VE23),"\n","VE24 = ",show(VE24),"\n","VE25 = ",show(VE25),"\n","VE26 = ",show(VE26),"\n","V3 = ",show(V3),"\n","VE30 = ",show(VE30),"\n","VE31 = ",show(VE31),"\n","VE32 = ",show(VE32),"\n","VE33 = ",show(VE33),"\n","VE34 = ",show(VE34),"\n","VE35 = ",show(VE35),"\n","VE36 = ",show(VE36),"\n","V4 = ",show(V4),"\n","VE40 = ",show(VE40),"\n","VE41 = ",show(VE41),"\n","VE42 = ",show(VE42),"\n","VE43 = ",show(VE43),"\n","VE44 = ",show(VE44),"\n","VE45 = ",show(VE45),"\n","VE46 = ",show(VE46),"\n","V5 = ",show(V5),"\n","VE50 = ",show(VE50),"\n","VE51 = ",show(VE51),"\n","VE52 = ",show(VE52),"\n","VE53 = ",show(VE53),"\n","VE54 = ",show(VE54),"\n","VE55 = ",show(VE55),"\n","VE56 = ",show(VE56),"\n","V6 = ",show(V6),"\n","VE60 = ",show(VE60),"\n","VE61 = ",show(VE61),"\n","VE62 = ",show(VE62),"\n","VE63 = ",show(VE63),"\n","VE64 = ",show(VE64),"\n","VE65 = ",show(VE65),"\n","VE66 = ",show(VE66),"\n","V7 = ",show(V7),"\n","VE70 = ",show(VE70),"\n","VE71 = ",show(VE71),"\n","VE72 = ",show(VE72),"\n","VE73 = ",show(VE73),"\n","VE74 = ",show(VE74),"\n","VE75 = ",show(VE75),"\n","VE76 = ",show(VE76),"\n","V8 = ",show(V8),"\n","VE80 = ",show(VE80),"\n","VE81 = ",show(VE81),"\n","VE82 = ",show(VE82),"\n","VE83 = ",show(VE83),"\n","VE84 = ",show(VE84),"\n","VE85 = ",show(VE85),"\n","VE86 = ",show(VE86),"\n","V9 = ",show(V9),"\n","VE90 = ",show(VE90),"\n","VE91 = ",show(VE91),"\n","VE92 = ",show(VE92),"\n","VE93 = ",show(VE93),"\n","VE94 = ",show(VE94),"\n","VE95 = ",show(VE95),"\n","VE96 = ",show(VE96),"\n","V10 = ",show(V10),"\n","VE100 = ",show(VE100),"\n","VE101 = ",show(VE101),"\n","VE102 = ",show(VE102),"\n","VE103 = ",show(VE103),"\n","VE104 = ",show(VE104),"\n","VE105 = ",show(VE105),"\n","VE106 = ",show(VE106),"\n"];
int: V0;
int: VE00;
int: VE01;
int: VE02;
int: VE03;
int: VE04;
int: VE05;
int: VE06;
int: V1;
int: VE10;
int: VE11;
int: VE12;
int: VE13;
int: VE14;
int: VE15;
int: VE16;
int: V2;
int: VE20;
int: VE21;
int: VE22;
int: VE23;
int: VE24;
int: VE25;
int: VE26;
int: V3;
int: VE30;
int: VE31;
int: VE32;
int: VE33;
int: VE34;
int: VE35;
int: VE36;
int: V4;
int: VE40;
int: VE41;
int: VE42;
int: VE43;
int: VE44;
int: VE45;
int: VE46;
int: V5;
int: VE50;
int: VE51;
int: VE52;
int: VE53;
int: VE54;
int: VE55;
int: VE56;
int: V6;
int: VE60;
int: VE61;
int: VE62;
int: VE63;
int: VE64;
int: VE65;
int: VE66;
int: V7;
int: VE70;
int: VE71;
int: VE72;
int: VE73;
int: VE74;
int: VE75;
int: VE76;
int: V8;
int: VE80;
int: VE81;
int: VE82;
int: VE83;
int: VE84;
int: VE85;
int: VE86;
int: V9;
int: VE90;
int: VE91;
int: VE92;
int: VE93;
int: VE94;
int: VE95;
int: VE96;
int: V10;
int: VE100;
int: VE101;
int: VE102;
int: VE103;
int: VE104;
int: VE105;
int: VE106;
